(set-info :smt-lib-version 2.6)
(set-logic QF_S)
(set-info :source |
Generated by: Shaoke Cui
Generated on: 2025-04-10
Application: Using String Solvers to solve string matching problems
Target solver: cvc5, OSTRICH, Z3, Z3alpha, Z3-noodler
Benchmarks for substring matching problem, which needs to determine whether the pattern string exists in the text string.
|)
(set-info :license "https://creativecommons.org/licenses/by/4.0/")
(set-info :category "crafted")
(set-info :status sat)
(declare-fun a1() String)
(declare-fun a2() String)
(declare-fun a3() String)
(declare-fun a4() String)
(declare-fun a5() String)
(declare-fun a6() String)
(declare-fun a7() String)
(declare-fun a8() String)
(declare-fun a9() String)
(declare-fun a10() String)
(declare-fun a11() String)
(declare-fun a12() String)
(declare-fun a13() String)
(declare-fun a14() String)
(assert (= a1 "33333333333333333333333333333333333333333333333333333333333333333333333333333333333333333333333333333333333333333333333333333333333333333333333333333333333333333333333333333"))
(assert (= a2 "33333333333333333333333333333333333333333333333333333333333333333333333333333333333333333333333333333333333333333333333333333333333333333333333333333333333333333333333333333"))
(assert (= a3 "33333333333333333333333333333333333333333333333333333333333333333333333333333333333333333333333333333333333333333333333333333333333333333333333333333333333333333333333333333"))
(assert (= a4 "33333333333333333333333333333333333333333333333333333333333333333333333333333333333333333333333333333333333333333333333333333333333333333333333333333333333333333333333333333"))
(assert (= a5 "33333333333333333333333333333333333333333333333333333333333333333333333333333333333333333333333333333333333333333333333333333333333333333333333333333333333333333333333333333"))
(assert (= a6 "33333333333333333333333333333333333333333333333333333333333333333333333333333333333333333333333333333333333333333333333333333333333333333333333333333333333333333333333333333"))
(assert (= a7 "33333333333333333333333333333333333333333333333333333333333333333333333333333333333333333333333333333333333333333333333333333333333333333333333333333333333333333333333333333"))
(assert (= a8 "33333333333333333333333333333333333333333333333333333333333333333333333333333333333333333333333333333333333333333333333333333333333333333333333333333333333333333333333333"))
(assert (= a9 "33333333333333333333333333333333333333333333333333333333333333333333333333333333333333333333333333333333333333333333333333333333333333333333333333333333333333333333333333"))
(assert (= a10 "33333333333333333333333333333333333333333333333333333333333333333333333333333333333333333333333333333333333333333333333333333333333333333333333333333333333333333333333333"))
(assert (= a11 "33333333333333333333333333333333333333333333333333333333333333333333333333333333333333333333333333333333333333333333333333333333333333333333333333333333333333333333333333"))
(assert (= a12 "33333333333333333333333333333333333333333333333333333333333333333333333333333333333333333333333333333333333333333333333333333333333333333333333333333333333333333333333333"))
(assert (= a13 "33333333333333333333333333333333333333333333333333333333333333333333333333333333333333333333333333333333333333333333333333333333333333333333333333333333333333333333333333"))
(assert (= a14 "33333333333333333333333333333333333333333333333333333333333333333333333333333333333333333333333333333333333333333333333333333333333333333333333333333333333333333333333333"))
(assert (str.contains (str.++ a7 a1 a3 a5 a2 a3 a6 a5 a4 a3 a4 a4 a7 a7 a4 a6 a3 a4 a7 a7 a6 a3 a7 a5 a2 a4 a3 a7 a5 a3 a1 a1 a4 a4 a1 a3 a4 a4 a5 a1 a4 a7 a7 a3 a1 a7 a5 a6 a7 a7 a1 a2 a5 a6 a6 a4 a3 a3 a3 a4 a4 a3 a1 a3 a7 a7 a4 a2 a6 a4 a2 a5 a6 a7 a7 a1 a1 a5 a2 a1 a5 a5 a6 a6 a2 a6 a1 a3 a1 a6 a7 a2 a2 a2 a6 a6 a5 a6 a7 a3 a7 a2 a1 a2 a7 a6 a5 a6 a4 a1 a2 a1 a3 a6 a5 a1 a4 a2 a1 a4 a7 a4 a6 a7 a3 a5 a3 a2 a6 a1 a5 a2 a3 a1 a5 a3 a4 a5 a7 a1 a6 a7 a5 a7 a2 a2 a3 a6 a2 a6 a5 a1 a3 a1 a6 a6 a1 a4 a3 a2 a1 a6 a7 a2 a1 a5 a1 a2 a3 a1 a6 a4 a6 a1 a1 a2 a5 a7 a1 a4 a1 a2 a2 a6 a4 a4 a4 a4 a5 a1 a2 a7 a7 a1 a6 a7 a3 a7 a1 a4 a5 a7 a3 a2 a4 a6 a2 a4 a5 a5 a1 a1 a4 a3 a4 a6 a5 a3 a2 a7 a5 a2 a2 a1 a1 a1 a3 a6 a3 a7 a5 a6 a4 a6 a1 a6 a4 a3 a1 a6 a5 a4 a2 a6 a5 a1 a7 a7 a3 a4 a2 a1 a3 a5 a1 a6 a4 a2 a3 a5 a5 a5 a4 a6 a7 a6 a5 a2 a1 a6 a6 a1 a7 a4 a1 a3 a4 a1 a5 a1 a1 a1 a1 a5 a1 a1 a3 a1 a5 a6 a7 a2 a1 a5 a5 a6 a5 a2 a1 a6 a2 a7 a3 a2 a3 a4 a2 a2 a2 a4 a7 a6 a7 a3 a7 a3 a2 a5 a1 a6 a3 a1 a4 a6 a2 a7 a6 a5 a5 a4 a2 a4 a7 a3 a2 a5 a2 a1 a6 a2 a2 a2 a6 a3 a7 a3 a1 a4 a4 a7 a3 a3 a7 a6 a5 a5 a4 a4 a3 a1 a2 a1 a4 a4 a7 a7 a3 a1 a4 a1 a6 a3 a3 a3 a3 a1 a4 a6 a3 a2 a4 a4 a1 a1 a2 a2 a6 a2 a4 a2 a3 a3 a1 a4 a7 a6 a4 a6 a5 a6 a5 a6 a5 a1 a3 a2 a2 a4 a1 a4 a6 a2 a7 a7 a2 a1 a7 a1 a6 a4 a5 a5 a7 a6 a7 a2 a2 a4 a6 a2 a5 a3 a1 a3 a6 a6 a1 a1 a6 a7 a3 a4 a4 a6 a2 a2 a7 a7 a6 a7 a7 a3 a4 a1 a5 a7 a5 a5 a5 a2 a1 a3 a2 a7 a4 a5 a1 a7 a2 a2 a3 a7 a7 a5 a2 a5 a7 a6 a1 a3 a7 a6 a2 a6 a5 a7 a3 a2 a2 a5 a7 a2 a1 a6 a5 a5 a6 a3 a7 a6 a5 a1 a5 a3 a4 a1 a1 a4 a3 a4 a6 a2 a4 a3 a7 a1 a1 a6 a4 a5 a3 a4 a4 a2 a7 a2 a6 a1 a1 a4 a1 a5 a3 a3 a4 a4 a7 a1 a3 a4 a5 a2 a5 a5 a3 a1 a3 a1 a2 a5 a4 a5 a5 a3 a2 a4 a4 a5 a5 a6 a4 a4 a2 a3 a3 a1 a7 a4 a7 a4 a5 a6 a6 a3 a1 a7 a3 a7 a5 a7 a5 a6 a2 a5 a4 a7 a7 a2 a5 a5 a2 a1 a2 a7 a5 a6 a3 a5 a7 a5 a3 a7 a1 a2 a3 a7 a3 a3 a1 a1 a1 a4 a7 a2 a2 a3 a6 a4 a4 a4 a4 a4 a4 a7 a7 a2 a6 a5 a2 a4 a5 a2 a6 a2 a6 a5 a6 a7 a3 a6 a6 a4 a1 a1 a5 a3 a3 a3 a1 a7 a4 a1 a6 a7 a4 a2 a6 a5 a6 a7 a2 a3 a1 a7 a3 a3 a4 a3 a5 a7 a6 a3 a6 a5 a2 a6 a2 a5 a5 a5 a6 a1 a2 a3 a1 a7 a6 a5 a6 a3 a7 a3 a4 a2 a7 a2 a7 a5 a5 a1 a3 a3 a7 a6 a1 a6 a2 a5 a1 a2 a5 a6 a4 a1 a2 a5 a6 a1 a2 a4 a1 a2 a7 a3 a5 a3 a7 a6 a6 a5 a5 a3 a4 a6 a3 a1 a1 a3 a6 a5 a5 a4 a6 a4 a5 a6 a5 a2 a6 a2 a7 a5 a1 a3 a1 a3 a2 a2 a5 a5 a4 a4 a1 a5 a7 a4 a2 a2 a4 a4 a2 a4 a3 a4 a3 a7 a1 a4 a6 a1 a6 a5 a4 a3 a6 a4 a5 a4 a6 a5 a7 a7 a5 a1 a5 a3 a1 a1 a7 a5 a6 a3 a2 a3 a4 a5 a2 a5 a7 a3 a7 a3 a1 a7 a4 a6 a1 a3 a5 a3 a5 a6 a3 a6 a1 a2 a1 a3 a1 a1 a2 a4 a5 a1 a6 a4 a1 a3 a1 a3 a5 a5 a3 a4 a2 a6 a7 a4 a4 a6 a5 a4 a7 a6 a3 a7 a2 a6 a4 a4 a1 a5 a7 a6 a7 a5 a2 a1 a3 a7 a2 a6 a5 a3 a5 a3 a7 a6 a5 a2 a7 a6 a3 a5 a2 a6 a7 a7 a2 a2 a7 a7 a5 a3 a6 a7 a1 a6 a2 a5 a3 a3 a4 a3 a6 a5 a5 a7 a3 a2 a5 a2 a6 a2 a4 a6 a3 a1 a5 a5 a4 a4 a4 a3 a1 a5 a2 a2 a6 a3 a7 a1 a4 a5 a3 a5 a4 a4 a2 a6 a4 a4 a3 a2 a7 a7 a2 a7 a5 a6 a4 a4 a1 a5 a1 a2 a7 a3 a4 a1 a1 a3 a7 a2 a3 a1 a4 a1 a1 a2 a4 a1 a2 a4 a6 a3 a7 a5 a7 a1 a4 a4 a5 a6 a7 a4 a7 a4 a3 a2 a2 a4 a1 a6 a4 a2 a2 a4 a1 a7 a7 a5 a7 a4 a4 a2 a6 a7 a6 a3 a1 a1 a5 a5 a2 a3 a2 a2 a6 a1 a2 a5 a6 a1 a7 a3 a3 a6 a5 a1 a6 a6 a7 a2 a2 a5 a4 a3 a4 a4 a7 a7 a3 a4 a6 a5 a5 a3 a6 a5 a5 a7 a1 a2 a4 a4 a3 a6 a4 a3 a4 a5 a5 a5 a1 a1 a5 a6 a5 a2 a6 a7 a6 a7 a2 a6 a6 a7 a4 a2 a2 a6 a3 a2 a1 a3 a2 a1 a4 a3 a6 a7 a2 a3 a1 a6 a3 a1 a5 a2 a6 a1 a6 a4 a1 a7 a1 a2 a2 a1 a4 a6 a6 a7 a1 a4 a1 a3 a6 a7 a6 a3 a4 a5 a5 a2 a4 a5 a4 a7 a2 a6 a3 a5 a5 a1 a2 a4 a5 a7 a7 a1 a1 a1 a3 a7 a5 a2 a1 a3 a6 a2 a3 a2 a7 a3 a7 a7 a5 a4 a3 a6 a4 a2 a4 a6 a1 a4 a1 a4 a6 a4 a5 a7 a5 a6 a3 a4 a3 a5 a2 a2 a1 a3 a6 a6 a6 a3 a6 a2 a6 a6 a6 a1 a2 a5 a7 a4 a5 a6 a5 a5 a1 a2 a3 a5 a4 a3 a3 a7 a2 a1 a6 a2 a2 a4 a7 a6 a7 a5 a4 a3 a6 a7 a2 a6 a3 a5 a7 a1 a6 a6 a6 a6 a4 a5 a6 a3 a5 a2 a1 a3 a2 a7 a1 a3 a4 a5 a4 a6 a2 a7 a6 a6 a3 a1 a4 a3 a3 a3 a7 a1 a5 a3 a1 a5 a3 a5 a5 a6 a7 a3 a2 a4 a2 a5 a1 a4 a6 a2 a2 a5 a4 a3 a2 a6 a6 a1 a2 a3 a7 a2 a6 a7 a2 a5 a1 a3 a6 a2 a6 a5 a7 a7 a2 a2 a2 a3 a1 a1 a1 a5 a2 a6 a4 a6 a7 a6 a2 a4 a2 a4 a7 a5 a4 a4 a6 a1 a2 a6 a3 a1 a5 a5 a3 a4 a2 a6 a1 a3 a5 a1 a3 a6 a7 a2 a1 a3 a7 a6 a4 a2 a6 a5 a5 a4 a7 a7 a3 a6 a6 a3 a1 a4 a2 a3 a6 a4 a3 a3 a6 a5 a2 a3 a2 a2 a3 a6 a1 a5 a5 a1 a4 a7 a1 a4 a4 a7 a7 a5 a6 a4 a3 a3 a6 a6 a2 a4 a1 a4 a4 a4 a6 a1 a1 a5 a6 a4 a7 a3 a6 a7 a3 a7 a2 a4 a7 a1 a2 a2 a3 a7 a7 a7 a3 a2 a5 a4 a4 a4 a3 a1 a4 a2 a2 a2 a2 a2 a3 a1 a3 a6 a4 a2 a3 a5 a6 a5 a6 a7 a2 a5 a5 a2 a1 a4 a5 a1 a4 a5 a6 a5 a7 a2 a6 a2 a2 a3 a6 a2 a4 a1 a4 a1 a1 a6 a3 a1 a2 a1 a1 a3 a3 a3 a7 a6 a5 a2 a2 a2 a1 a7 a5 a2 a4 a4 a1 a7 a1 a4 a5 a1 a6 a4 a3 a7 a2 a2 a2 a6 a5 a7 a4 a3 a4 a2 a2 a4 a5 a2 a6 a2 a1 a2 a1 a1 a4 a1 a5 a5 a6 a2 a7 a3 a2 a4 a3 a4 a6 a6 a3 a1 a1 a3 a4 a7 a1 a1 a2 a4 a4 a6 a5 a6 a6 a5 a3 a7 a6 a6 a3 a7 a3 a5 a5 a5 a4 a7 a6 a6 a3 a2 a3 a5 a6 a4 a3 a7 a2 a4 a6 a2 a7 a3 a1 a5 a2 a7 a2 a2 a2 a3 a5 a5 a5 a3 a5 a1 a6 a4 a6 a1 a4 a4 a6 a6 a1 a4 a6 a7 a1 a6 a2 a1 a4 a4 a3 a4 a2 a7 a1 a2 a2 a7 a6 a2 a4 a6 a2 a5 a4 a5 a7 a1 a1 a4 a7 a1 a6 a2 a3 a4 a5 a5 a3 a6 a4 a7 a5 a5 a3 a1 a7 a5 a7 a3 a7 a3 a6 a2 a5 a3 a6 a3 a6 a7 a7 a4 a2 a6 a2 a3 a7 a5 a7 a3 a3 a7 a7 a2 a7 a3 a5 a3 a1 a2 a6 a3 a7 a5 a3 a5 a5 a6 a1 a6 a5 a4 a1 a2 a3 a7 a4 a1 a2 a7 a5 a4 a3 a2 a4 a6 a7 a7 a3 a4 a6 a2 a1 a4 a3 a2 a5 a5 a1 a3 a3 a6 a3 a7 a2 a1 a1 a4 a4 a7 a6 a6  "1" a8 a11 a9 a11 a8 a9 a10 a13 a13 a10 a9 a9 a13 a13 a11 a8 a13 a14 a8 a12 a11 a10 a13 a14 a8 a9 a11 a10 a11 a11 a14 a10 a12 a13 a10 a14 a10 a11 a13 a10 a11 a11 a11 a12 a11 a12 a13 a10 a13 a9 a9 a10 a11 a11 a9 a11 a9 a9 a8 a11 a13 a8 a8 a10 a11 a13 a12 a9 a9 a12 a10 a8 a9 a8 a13 a11 a9 a8 a13 a8 a13 a13 a12 a14 a10 a13 a9 a12 a8 a12 a12 a13 a8 a13 a8 a9 a14 a11 a14 a8 a13 a12 a12 a13 a9 a14 a10 a13 a14 a8 a9 a14 a11 a9 a14 a14 a14 a13 a13 a14 a9 a8 a9 a9 a14 a14 a12 a12 a11 a14 a9 a14 a12 a8 a8 a10 a11 a10 a9 a14 a13 a14 a8 a8 a9 a9 a12 a14 a14 a11 a13 a12 a8 a11 a14 a11 a12 a9 a9 a14 a12 a12 a8 a10 a8 a13 a14 a12 a14 a13 a12 a11 a10 a9 a14 a10 a11 a13 a11 a10 a14 a13 a12 a13 a10 a11 a8 a9 a9 a8 a9 a11 a14 a8 a9 a14 a11 a11 a10 a12 a13 a8 a12 a10 a8 a11 a13 a9 a8 a12 a8 a10 a8 a9 a13 a12 a11 a13 a14 a9 a8 a9 a13 a11 a11 a14 a8 a12 a13 a11 a14 a13 a8 a12 a14 a13 a11 a9 a9 a11 a13 a14 a8 a13 a12 a11 a11 a9 a10 a13 a14 a11 a11 a14 a9 a13 a9 a11 a9 a13 a11 a14 a11 a14 a11 a12 a8 a12 a8 a14 a12 a11 a11 a13 a12 a9 a12 a8 a13 a11 a13 a10 a10 a10 a10 a13 a9 ) (str.++ a12 a8 a11 a11 a11 a12 a10 a13 a11 a10 a10 a8 a14 a11 a13 a10 a13 a10 a8 a8 a13 a10 a13 a13 a10 a9 a10 a11 a10 a11 a11 a14 a10 a12 a14 a10 a10 a10 a10 a11 a12 a8 a13 a12 a8 a9 a11 a10 a14 a9 a14 a9 a8 a12 a13 a14 a14 a12 a8 a9 a13 a13 a13 a9 a10 a13 a10 a11 a14 a10 a13 a12 a12 a10 a14 a10 a11 a10 a10 a12 a11 a8 a11 a11 a10 a10 a9 a13 a11 a12 a11 a12 a9 a13 a10 a12 a13 a11 a10 a9 a12 a14 a10 a10 a8 a12 a10 a12 a12 a14 a11 a11 a12 a8 a9 a14 a9 a11 a12 a14 a10 a13 a13 a9 a9 a9 a13 a14 a9 a11 a12 a14 a10 a11 a14 a10 a8 a14 a8 a8 a9 a10 a14 a8 a9 a10 a8 a9 a14 a12 a8 a13 a10 a11 a10 a10 a12 a9 a10 a13 a13 a14 a10 a8 a13 a8 a9 a10 a9 a11 a12 a14 a9 a10 a13 a14 a11 a13 a11 a13 a14 a8 a9 a13 a11 a12 a8 a12 a9 a13 a12 a8 a8 a12 a11 a9 a10 a9 a8 a11 a14 a8 a8 a13 a14 a12 a9 a13 a13 a13 a12 a10 a11 a12 a13 a11 a11 a11 a9 a10 a11 a9 a8 a12 a13 a11 a13 a10 a10 a8 a8 a8 a11 a9 a12 a8 a13 a11 a8 a8 a12 a11 a12 a8 a11 a8 a9 a11 a13 a11 a11 a11 a8 a9 a9 a8 a13 a11 a8 a13 a14 a14 a14 a14 a13 a10 a8 a11 a10 a12 a8 a13 a13 a14 a11 a11 a11 a13 a12 a8 a9 a10 a14 a13  "1")))
(check-sat)
(exit)
